/* Cplex Data generated on 2017-12-16 */

k = 70;

b = 35;

AtomicConstraints = {
	 <1, 2>,
	 <1, 3>,
	 <1, 4>,
	 <1, 5>,
	 <2, 3>,
	 <2, 4>,
	 <2, 5>,
	 <3, 4>,
	 <3, 5>,
	 <4, 5>,
	 <6, 14>,
	 <6, 15>,
	 <6, 16>,
	 <6, 17>,
	 <6, 18>,
	 <6, 39>,
	 <6, 38>,
	 <6, 19>,
	 <6, 20>,
	 <6, 21>,
	 <6, 22>,
	 <6, 23>,
	 <6, 34>,
	 <7, 14>,
	 <7, 15>,
	 <7, 16>,
	 <7, 17>,
	 <7, 18>,
	 <7, 39>,
	 <7, 38>,
	 <7, 19>,
	 <7, 20>,
	 <7, 21>,
	 <7, 22>,
	 <7, 23>,
	 <7, 34>,
	 <7, 35>,
	 <8, 14>,
	 <8, 15>,
	 <8, 16>,
	 <8, 17>,
	 <8, 18>,
	 <8, 39>,
	 <8, 38>,
	 <8, 19>,
	 <8, 20>,
	 <8, 21>,
	 <8, 22>,
	 <8, 23>,
	 <8, 34>,
	 <8, 35>,
	 <9, 14>,
	 <9, 15>,
	 <9, 16>,
	 <9, 17>,
	 <9, 18>,
	 <9, 39>,
	 <9, 38>,
	 <9, 19>,
	 <9, 20>,
	 <9, 21>,
	 <9, 22>,
	 <9, 23>,
	 <9, 34>,
	 <9, 35>,
	 <10, 14>,
	 <10, 15>,
	 <10, 16>,
	 <10, 17>,
	 <10, 18>,
	 <10, 39>,
	 <10, 38>,
	 <10, 19>,
	 <10, 20>,
	 <10, 21>,
	 <10, 22>,
	 <10, 23>,
	 <11, 1>,
	 <11, 2>,
	 <11, 3>,
	 <11, 4>,
	 <11, 5>,
	 <11, 24>,
	 <11, 25>,
	 <11, 26>,
	 <11, 27>,
	 <11, 28>,
	 <12, 1>,
	 <12, 2>,
	 <12, 3>,
	 <12, 4>,
	 <12, 5>,
	 <12, 24>,
	 <12, 25>,
	 <12, 26>,
	 <12, 27>,
	 <12, 28>,
	 <13, 1>,
	 <13, 2>,
	 <13, 3>,
	 <13, 4>,
	 <13, 5>,
	 <13, 24>,
	 <13, 25>,
	 <13, 26>,
	 <13, 27>,
	 <13, 28>,
	 <14, 39>,
	 <14, 38>,
	 <14, 19>,
	 <15, 39>,
	 <15, 38>,
	 <15, 19>,
	 <15, 20>,
	 <16, 38>,
	 <16, 19>,
	 <16, 20>,
	 <16, 21>,
	 <17, 19>,
	 <17, 20>,
	 <17, 21>,
	 <17, 22>,
	 <18, 20>,
	 <18, 21>,
	 <18, 22>,
	 <23, 39>,
	 <23, 38>,
	 <29, 1>,
	 <29, 2>,
	 <29, 3>,
	 <29, 4>,
	 <29, 5>,
	 <29, 14>,
	 <29, 15>,
	 <29, 16>,
	 <29, 17>,
	 <29, 39>,
	 <29, 38>,
	 <29, 19>,
	 <29, 20>,
	 <29, 21>,
	 <29, 23>,
	 <30, 1>,
	 <30, 2>,
	 <30, 3>,
	 <30, 4>,
	 <30, 5>,
	 <30, 14>,
	 <30, 15>,
	 <30, 16>,
	 <30, 17>,
	 <30, 18>,
	 <30, 39>,
	 <30, 38>,
	 <30, 19>,
	 <30, 20>,
	 <30, 21>,
	 <30, 22>,
	 <30, 23>,
	 <70, 66>,
	 <70, 67>,
	 <70, 68>,
	 <70, 58>,
	 <49, 40>,
	 <49, 70>,
	 <49, 66>,
	 <49, 67>,
	 <49, 68>,
	 <49, 69>,
	 <50, 40>,
	 <50, 70>,
	 <50, 66>,
	 <50, 67>,
	 <50, 68>,
	 <50, 58>,
	 <50, 69>,
	 <54, 40>,
	 <54, 49>,
	 <54, 66>,
	 <54, 67>,
	 <54, 69>,
	 <51, 40>,
	 <51, 70>,
	 <51, 49>,
	 <51, 66>,
	 <51, 67>,
	 <51, 68>,
	 <51, 69>,
	 <52, 40>,
	 <52, 70>,
	 <52, 49>,
	 <52, 50>,
	 <52, 66>,
	 <52, 67>,
	 <52, 68>,
	 <52, 58>,
	 <52, 69>,
	 <53, 40>,
	 <53, 70>,
	 <53, 50>,
	 <53, 66>,
	 <53, 67>,
	 <53, 68>,
	 <53, 58>,
	 <53, 69>,
	 <37, 40>,
	 <37, 49>,
	 <37, 54>,
	 <37, 66>,
	 <37, 51>,
	 <37, 67>,
	 <37, 69>,
	 <55, 40>,
	 <55, 70>,
	 <55, 49>,
	 <55, 54>,
	 <55, 66>,
	 <55, 51>,
	 <55, 52>,
	 <55, 67>,
	 <55, 68>,
	 <55, 69>,
	 <56, 40>,
	 <56, 70>,
	 <56, 49>,
	 <56, 50>,
	 <56, 54>,
	 <56, 66>,
	 <56, 51>,
	 <56, 52>,
	 <56, 67>,
	 <56, 68>,
	 <56, 69>,
	 <57, 40>,
	 <57, 70>,
	 <57, 49>,
	 <57, 50>,
	 <57, 54>,
	 <57, 66>,
	 <57, 51>,
	 <57, 52>,
	 <57, 53>,
	 <57, 67>,
	 <57, 68>,
	 <57, 58>,
	 <57, 69>,
	 <36, 40>,
	 <36, 49>,
	 <36, 54>,
	 <36, 66>,
	 <36, 51>,
	 <36, 37>,
	 <36, 55>,
	 <36, 56>,
	 <36, 67>,
	 <36, 69>,
	 <59, 40>,
	 <59, 70>,
	 <59, 49>,
	 <59, 54>,
	 <59, 66>,
	 <59, 51>,
	 <59, 52>,
	 <59, 37>,
	 <59, 55>,
	 <59, 56>,
	 <59, 57>,
	 <59, 67>,
	 <59, 68>,
	 <59, 69>,
	 <60, 40>,
	 <60, 70>,
	 <60, 49>,
	 <60, 50>,
	 <60, 54>,
	 <60, 66>,
	 <60, 51>,
	 <60, 52>,
	 <60, 37>,
	 <60, 55>,
	 <60, 56>,
	 <60, 57>,
	 <60, 67>,
	 <60, 68>,
	 <60, 69>,
	 <61, 40>,
	 <61, 70>,
	 <61, 49>,
	 <61, 50>,
	 <61, 54>,
	 <61, 66>,
	 <61, 51>,
	 <61, 52>,
	 <61, 53>,
	 <61, 55>,
	 <61, 56>,
	 <61, 57>,
	 <61, 67>,
	 <61, 68>,
	 <61, 58>,
	 <61, 69>,
	 <62, 40>,
	 <62, 70>,
	 <62, 49>,
	 <62, 50>,
	 <62, 54>,
	 <62, 66>,
	 <62, 51>,
	 <62, 52>,
	 <62, 53>,
	 <62, 56>,
	 <62, 57>,
	 <62, 67>,
	 <62, 68>,
	 <62, 58>,
	 <62, 69>,
	 <63, 40>,
	 <63, 70>,
	 <63, 49>,
	 <63, 50>,
	 <63, 54>,
	 <63, 66>,
	 <63, 51>,
	 <63, 52>,
	 <63, 53>,
	 <63, 57>,
	 <63, 67>,
	 <63, 68>,
	 <63, 58>,
	 <63, 69>,
	 <64, 40>,
	 <64, 49>,
	 <64, 54>,
	 <64, 66>,
	 <64, 51>,
	 <64, 37>,
	 <64, 55>,
	 <64, 56>,
	 <64, 67>,
	 <64, 36>,
	 <64, 59>,
	 <64, 60>,
	 <64, 69>,
	 <45, 40>,
	 <45, 70>,
	 <45, 49>,
	 <45, 54>,
	 <45, 66>,
	 <45, 51>,
	 <45, 52>,
	 <45, 37>,
	 <45, 55>,
	 <45, 56>,
	 <45, 57>,
	 <45, 67>,
	 <45, 36>,
	 <45, 59>,
	 <45, 60>,
	 <45, 61>,
	 <45, 68>,
	 <45, 69>,
	 <41, 40>,
	 <41, 70>,
	 <41, 49>,
	 <41, 50>,
	 <41, 54>,
	 <41, 66>,
	 <41, 51>,
	 <41, 52>,
	 <41, 37>,
	 <41, 55>,
	 <41, 56>,
	 <41, 57>,
	 <41, 67>,
	 <41, 36>,
	 <41, 59>,
	 <41, 60>,
	 <41, 61>,
	 <41, 62>,
	 <41, 68>,
	 <41, 69>,
	 <42, 40>,
	 <42, 70>,
	 <42, 49>,
	 <42, 50>,
	 <42, 54>,
	 <42, 66>,
	 <42, 51>,
	 <42, 52>,
	 <42, 53>,
	 <42, 37>,
	 <42, 55>,
	 <42, 56>,
	 <42, 57>,
	 <42, 67>,
	 <42, 36>,
	 <42, 59>,
	 <42, 60>,
	 <42, 61>,
	 <42, 62>,
	 <42, 63>,
	 <42, 68>,
	 <42, 58>,
	 <42, 69>,
	 <43, 40>,
	 <43, 70>,
	 <43, 49>,
	 <43, 50>,
	 <43, 54>,
	 <43, 66>,
	 <43, 51>,
	 <43, 52>,
	 <43, 53>,
	 <43, 37>,
	 <43, 55>,
	 <43, 56>,
	 <43, 57>,
	 <43, 67>,
	 <43, 36>,
	 <43, 59>,
	 <43, 60>,
	 <43, 61>,
	 <43, 62>,
	 <43, 63>,
	 <43, 68>,
	 <43, 58>,
	 <43, 69>,
	 <44, 40>,
	 <44, 70>,
	 <44, 49>,
	 <44, 50>,
	 <44, 54>,
	 <44, 66>,
	 <44, 51>,
	 <44, 52>,
	 <44, 53>,
	 <44, 37>,
	 <44, 55>,
	 <44, 56>,
	 <44, 57>,
	 <44, 67>,
	 <44, 59>,
	 <44, 60>,
	 <44, 61>,
	 <44, 62>,
	 <44, 63>,
	 <44, 68>,
	 <44, 58>,
	 <44, 69>,
	 <65, 40>,
	 <65, 49>,
	 <65, 54>,
	 <65, 66>,
	 <65, 51>,
	 <65, 37>,
	 <65, 55>,
	 <65, 56>,
	 <65, 67>,
	 <65, 36>,
	 <65, 59>,
	 <65, 60>,
	 <65, 64>,
	 <65, 45>,
	 <65, 41>,
	 <65, 69>,
	 <47, 40>,
	 <47, 70>,
	 <47, 49>,
	 <47, 54>,
	 <47, 66>,
	 <47, 51>,
	 <47, 52>,
	 <47, 37>,
	 <47, 55>,
	 <47, 56>,
	 <47, 57>,
	 <47, 67>,
	 <47, 36>,
	 <47, 59>,
	 <47, 60>,
	 <47, 61>,
	 <47, 64>,
	 <47, 45>,
	 <47, 41>,
	 <47, 68>,
	 <47, 42>,
	 <47, 69>,
	 <48, 40>,
	 <48, 70>,
	 <48, 49>,
	 <48, 50>,
	 <48, 54>,
	 <48, 66>,
	 <48, 51>,
	 <48, 52>,
	 <48, 53>,
	 <48, 37>,
	 <48, 55>,
	 <48, 56>,
	 <48, 57>,
	 <48, 67>,
	 <48, 36>,
	 <48, 59>,
	 <48, 60>,
	 <48, 61>,
	 <48, 62>,
	 <48, 63>,
	 <48, 45>,
	 <48, 41>,
	 <48, 68>,
	 <48, 42>,
	 <48, 43>,
	 <48, 44>,
	 <48, 58>,
	 <48, 69>,
	 <46, 40>,
	 <46, 70>,
	 <46, 49>,
	 <46, 50>,
	 <46, 54>,
	 <46, 66>,
	 <46, 51>,
	 <46, 52>,
	 <46, 53>,
	 <46, 37>,
	 <46, 55>,
	 <46, 56>,
	 <46, 57>,
	 <46, 67>,
	 <46, 36>,
	 <46, 59>,
	 <46, 60>,
	 <46, 61>,
	 <46, 62>,
	 <46, 63>,
	 <46, 68>,
	 <46, 42>,
	 <46, 43>,
	 <46, 44>,
	 <46, 58>,
	 <46, 69>,
	 <69, 40>,
	 <69, 66>,
	 <69, 67>,
	 <69, 68>,
	 }; 

SoftAtomicConstraints = {
	 <7, 6>,
	 <8, 7>,
	 <9, 8>,
	 <6, 10>,
	 <13, 12>,
	 <11, 13>,
	 <15, 14>,
	 <16, 15>,
	 <17, 16>,
	 <18, 17>,
	 <20, 19>,
	 <21, 20>,
	 <22, 21>,
	 <14, 23>,
	 <25, 24>,
	 <26, 25>,
	 <27, 26>,
	 <28, 27>,
	 <29, 28>,
	 <30, 29>,
	 <32, 31>,
	 <33, 32>,
	 <35, 34>,
	 <59, 36>,
	 <55, 37>,
	 <19, 38>,
	 <38, 39>,
	 <66, 40>,
	 <42, 41>,
	 <43, 42>,
	 <44, 43>,
	 <41, 45>,
	 <48, 47>,
	 <46, 48>,
	 <50, 49>,
	 <52, 51>,
	 <53, 52>,
	 <51, 54>,
	 <56, 55>,
	 <57, 56>,
	 <60, 59>,
	 <61, 60>,
	 <62, 61>,
	 <63, 62>,
	 <45, 64>,
	 <47, 65>,
	 <67, 66>,
	 <68, 67>,
	 <58, 68>,
	 <70, 69>,
	 }; 

DisjunctiveConstraints = {
	 <6, 7, 6, 10>,
	 <7, 8, 7, 6>,
	 <7, 34, 7, 69>,
	 <8, 9, 8, 7>,
	 <8, 35, 8, 70>,
	 <10, 35, 70, 10>,
	 <13, 11, 13, 12>,
	 <14, 15, 14, 23>,
	 <15, 16, 15, 14>,
	 <16, 17, 16, 15>,
	 <17, 18, 17, 16>,
	 <38, 19, 38, 39>,
	 <19, 20, 19, 38>,
	 <20, 21, 20, 19>,
	 <21, 22, 21, 20>,
	 <25, 26, 25, 24>,
	 <26, 27, 26, 25>,
	 <27, 28, 27, 26>,
	 <29, 15, 29, 50>,
	 <30, 20, 30, 55>,
	 <32, 33, 32, 31>,
	 <50, 58, 23, 50>,
	 <54, 66, 31, 54>,
	 <51, 52, 51, 54>,
	 <51, 67, 32, 51>,
	 <51, 69, 34, 51>,
	 <52, 53, 52, 51>,
	 <66, 67, 66, 40>,
	 <37, 51, 16, 37>,
	 <37, 66, 31, 37>,
	 <55, 49, 14, 55>,
	 <55, 56, 55, 37>,
	 <55, 67, 32, 55>,
	 <55, 69, 34, 55>,
	 <56, 34, 56, 69>,
	 <56, 70, 35, 56>,
	 <56, 52, 17, 56>,
	 <56, 57, 56, 55>,
	 <56, 68, 33, 56>,
	 <57, 35, 57, 70>,
	 <57, 50, 15, 57>,
	 <36, 5, 36, 40>,
	 <36, 51, 16, 36>,
	 <36, 66, 31, 36>,
	 <59, 49, 14, 59>,
	 <59, 66, 59, 31>,
	 <59, 67, 32, 59>,
	 <59, 60, 59, 36>,
	 <59, 69, 34, 59>,
	 <60, 34, 60, 69>,
	 <60, 70, 35, 60>,
	 <60, 52, 17, 60>,
	 <60, 61, 60, 59>,
	 <60, 67, 60, 32>,
	 <60, 68, 33, 60>,
	 <61, 35, 61, 70>,
	 <61, 50, 15, 61>,
	 <61, 62, 61, 60>,
	 <61, 68, 61, 33>,
	 <67, 68, 67, 66>,
	 <62, 53, 18, 62>,
	 <62, 63, 62, 61>,
	 <62, 58, 23, 62>,
	 <63, 23, 63, 58>,
	 <64, 5, 64, 40>,
	 <64, 19, 64, 54>,
	 <64, 51, 16, 64>,
	 <64, 66, 31, 64>,
	 <64, 55, 20, 64>,
	 <45, 16, 45, 51>,
	 <45, 49, 14, 45>,
	 <45, 66, 45, 31>,
	 <45, 56, 21, 45>,
	 <45, 67, 32, 45>,
	 <45, 41, 45, 64>,
	 <45, 69, 34, 45>,
	 <41, 14, 41, 49>,
	 <41, 34, 41, 69>,
	 <41, 70, 35, 41>,
	 <41, 52, 17, 41>,
	 <41, 57, 22, 41>,
	 <41, 67, 41, 32>,
	 <41, 42, 41, 45>,
	 <41, 68, 33, 41>,
	 <42, 17, 42, 52>,
	 <42, 35, 42, 70>,
	 <42, 50, 15, 42>,
	 <42, 43, 42, 41>,
	 <42, 68, 42, 33>,
	 <43, 15, 43, 50>,
	 <43, 53, 18, 43>,
	 <43, 44, 43, 42>,
	 <43, 58, 23, 43>,
	 <44, 18, 44, 53>,
	 <44, 23, 44, 58>,
	 <65, 5, 65, 40>,
	 <65, 19, 65, 54>,
	 <65, 51, 16, 65>,
	 <65, 66, 31, 65>,
	 <65, 55, 20, 65>,
	 <47, 16, 47, 51>,
	 <47, 49, 14, 47>,
	 <47, 66, 47, 31>,
	 <47, 56, 21, 47>,
	 <47, 67, 32, 47>,
	 <47, 48, 47, 65>,
	 <47, 69, 34, 47>,
	 <68, 58, 68, 67>,
	 <48, 17, 48, 52>,
	 <48, 35, 48, 70>,
	 <48, 50, 15, 48>,
	 <48, 68, 48, 33>,
	 <48, 46, 48, 47>,
	 <48, 58, 23, 48>,
	 <46, 18, 46, 53>,
	 <46, 23, 46, 58>,
	 }; 

DirectSuccessors = {
	 }; 

